Nd2 Cu4 O8
1.0
-2.922799 2.922799 4.877073
2.922799 -2.922799 4.877073
2.922799 2.922799 -4.877073
Nd Cu O
2 4 8
direct
0.000000 0.000000 0.000000 Nd
0.750000 0.250000 0.500000 Nd
0.375000 0.125000 0.750000 Cu
0.375000 0.625000 0.250000 Cu
0.875000 0.625000 0.250000 Cu
0.375000 0.625000 0.750000 Cu
0.167112 0.594532 0.863029 O
0.731503 0.304083 0.136971 O
0.582888 0.655468 0.636971 O
0.018497 0.945917 0.363029 O
0.344532 0.981503 0.927420 O
0.054083 0.417112 0.072580 O
0.695917 0.832888 0.427420 O
0.405468 0.268497 0.572580 O
