Cu4 S2 O10
1.0
3.208136 4.747296 0.000000
-3.208136 4.747296 0.000000
0.000000 4.343962 6.549237
Cu S O
4 2 10
direct
0.080140 0.080140 0.781112 Cu
0.919860 0.919860 0.218888 Cu
0.000000 0.500000 0.000000 Cu
0.500000 0.000000 0.000000 Cu
0.595946 0.595946 0.685986 S
0.404054 0.404054 0.314014 S
0.708647 0.325408 0.245206 O
0.674592 0.291353 0.754794 O
0.291353 0.674592 0.754794 O
0.325408 0.708647 0.245206 O
0.149430 0.149430 0.982299 O
0.850570 0.850570 0.017701 O
0.299936 0.299936 0.230205 O
0.700064 0.700064 0.769795 O
0.694527 0.694527 0.460137 O
0.305473 0.305473 0.539863 O
