Li2 Cu1 O2
1.0
-1.455493 1.854942 4.633661
1.455493 -1.854942 4.633661
1.455493 1.854942 -4.633661
Li Cu O
2 1 2
direct
0.209649 0.709649 0.500000 Li
0.790351 0.290351 0.500000 Li
0.500000 0.000000 0.500000 Cu
0.644377 0.644377 0.000000 O
0.355623 0.355623 0.000000 O
