Cu3 P2 O8
1.0
-4.909249 0.000000 0.000000
2.137506 5.187777 0.000000
-0.307091 -1.797176 -5.978595
Cu P O
3 2 8
direct
0.267195 0.789870 0.321046 Cu
0.732805 0.210130 0.678954 Cu
0.000000 0.000000 0.000000 Cu
0.357047 0.667707 0.784161 P
0.642953 0.332293 0.215839 P
0.377327 0.863889 0.640170 O
0.622673 0.136111 0.359830 O
0.220042 0.779474 0.006513 O
0.779958 0.220526 0.993487 O
0.336552 0.325020 0.160941 O
0.154484 0.380761 0.659757 O
0.845516 0.619239 0.340243 O
0.663448 0.674980 0.839059 O
