Gd4 Cu2 O8
1.0
3.909540 3.909271 0.000132
3.909392 -3.909123 0.000002
1.954667 1.954535 -5.986798
Gd Cu O
4 2 8
direct
0.150889 0.500000 0.698231 Gd
0.349286 0.000000 0.301427 Gd
0.849290 0.500000 0.301418 Gd
0.650635 0.000000 0.698733 Gd
0.499977 0.500002 0.000041 Cu
0.999978 0.000001 0.000037 Cu
0.999955 0.249981 0.500042 O
0.500009 0.750014 0.500038 O
0.500056 0.249990 0.499946 O
0.000002 0.750014 0.499949 O
0.249896 0.750123 0.000036 O
0.750066 0.249875 0.000031 O
0.249902 0.249874 0.000037 O
0.750059 0.750126 0.000032 O
