Cu6 B12 O24
1.0
-5.795044 5.795044 2.836574
5.795044 -5.795044 2.836574
5.795044 5.795044 -2.836574
Cu B O
6 12 24
direct
0.750000 0.250000 0.500000 Cu
0.500000 0.500000 0.000000 Cu
0.125000 0.792887 0.167887 Cu
0.625000 0.957113 0.832113 Cu
0.207113 0.375000 0.332113 Cu
0.042887 0.875000 0.667887 Cu
0.799441 0.262641 0.167476 B
0.450559 0.118036 0.963200 B
0.095165 0.631964 0.832524 B
0.154835 0.487359 0.036800 B
0.737359 0.904835 0.536800 B
0.512641 0.549441 0.667476 B
0.368036 0.200559 0.463200 B
0.881964 0.845165 0.332524 B
0.625000 0.375813 0.250813 B
0.125000 0.374187 0.749187 B
0.624187 0.875000 0.249187 B
0.625813 0.375000 0.750813 B
0.673602 0.084823 0.270255 O
0.576398 0.346654 0.911221 O
0.814568 0.403346 0.729745 O
0.435432 0.665177 0.088779 O
0.915177 0.185432 0.588779 O
0.334823 0.423602 0.770255 O
0.596654 0.326398 0.411221 O
0.653346 0.564568 0.229745 O
0.625000 0.122915 0.997915 O
0.125000 0.627085 0.002085 O
0.877085 0.875000 0.502085 O
0.372915 0.375000 0.497915 O
0.040816 0.375000 0.165816 O
0.209184 0.875000 0.834184 O
0.625000 0.790816 0.665816 O
0.125000 0.959184 0.334184 O
0.859653 0.473609 0.239551 O
0.390347 0.129898 0.113956 O
0.234059 0.620102 0.760449 O
0.015941 0.276391 0.886044 O
0.526391 0.765941 0.386044 O
0.723609 0.609653 0.739551 O
0.379898 0.140347 0.613956 O
0.870102 0.984059 0.260449 O
