Nd2 Cu1 O4
1.0
-1.986927 1.986927 6.173565
1.986927 -1.986927 6.173565
1.986927 1.986927 -6.173565
Nd Cu O
2 1 4
direct
0.649915 0.649915 0.000000 Nd
0.350085 0.350085 0.000000 Nd
0.000000 0.000000 0.000000 Cu
0.750000 0.250000 0.500000 O
0.250000 0.750000 0.500000 O
0.500000 0.000000 0.500000 O
0.000000 0.500000 0.500000 O
